experiment/data/hgs-res/Vrp-Set-X-n200/Vrp-Set-X-n200-hgs/0.hgs1.vrp
NAME : 0
COMMENT : CVRP Instance
TYPE : CVRP
DIMENSION : 200
EDGE_WEIGHT_TYPE : EUC_2D
CAPACITY : 402
NODE_COORD_SECTION
1	957.0	135.0
2	149.0	141.0
3	1.0	96.0
4	228.0	268.0
5	781.0	529.0
6	867.0	797.0
7	109.0	53.0
8	13.0	449.0
9	133.0	293.0
10	259.0	172.0
11	908.0	678.0
12	930.0	867.0
13	903.0	766.0
14	143.0	263.0
15	735.0	501.0
16	259.0	253.0
17	59.0	62.0
18	737.0	464.0
19	925.0	587.0
20	16.0	404.0
21	893.0	720.0
22	131.0	188.0
23	226.0	228.0
24	285.0	68.0
25	113.0	323.0
26	67.0	307.0
27	797.0	381.0
28	804.0	573.0
29	892.0	838.0
30	307.0	141.0
31	40.0	347.0
32	933.0	708.0
33	906.0	725.0
34	242.0	231.0
35	310.0	255.0
36	183.0	308.0
37	57.0	153.0
38	122.0	254.0
39	1.0	437.0
40	83.0	548.0
41	872.0	427.0
42	118.0	317.0
43	100.0	402.0
44	54.0	335.0
45	180.0	118.0
46	875.0	774.0
47	792.0	774.0
48	92.0	166.0
49	890.0	821.0
50	184.0	6.0
51	189.0	299.0
52	230.0	234.0
53	61.0	728.0
54	147.0	501.0
55	180.0	371.0
56	756.0	455.0
57	121.0	248.0
58	747.0	756.0
59	890.0	825.0
60	275.0	63.0
61	67.0	131.0
62	96.0	15.0
63	709.0	611.0
64	893.0	822.0
65	121.0	170.0
66	770.0	580.0
67	122.0	320.0
68	695.0	626.0
69	712.0	670.0
70	101.0	98.0
71	824.0	813.0
72	256.0	265.0
73	726.0	553.0
74	248.0	359.0
75	864.0	742.0
76	149.0	74.0
77	872.0	329.0
78	847.0	817.0
79	864.0	575.0
80	976.0	818.0
81	193.0	126.0
82	79.0	88.0
83	97.0	403.0
84	284.0	424.0
85	907.0	842.0
86	808.0	590.0
87	146.0	120.0
88	66.0	480.0
89	824.0	634.0
90	9.0	421.0
91	152.0	157.0
92	318.0	223.0
93	853.0	307.0
94	184.0	277.0
95	268.0	379.0
96	183.0	236.0
97	93.0	217.0
98	207.0	439.0
99	280.0	417.0
100	80.0	110.0
101	20.0	67.0
102	142.0	384.0
103	165.0	63.0
104	62.0	410.0
105	176.0	261.0
106	223.0	301.0
107	830.0	608.0
108	7.0	164.0
109	188.0	108.0
110	770.0	537.0
111	168.0	99.0
112	641.0	321.0
113	174.0	165.0
114	886.0	816.0
115	53.0	303.0
116	216.0	377.0
117	214.0	261.0
118	104.0	44.0
119	393.0	114.0
120	222.0	51.0
121	261.0	355.0
122	894.0	577.0
123	35.0	285.0
124	93.0	509.0
125	127.0	150.0
126	873.0	468.0
127	60.0	105.0
128	133.0	232.0
129	147.0	252.0
130	778.0	547.0
131	227.0	403.0
132	46.0	419.0
133	82.0	381.0
134	83.0	80.0
135	43.0	466.0
136	246.0	330.0
137	337.0	216.0
138	83.0	205.0
139	9.0	55.0
140	127.0	123.0
141	121.0	449.0
142	72.0	189.0
143	771.0	491.0
144	73.0	201.0
145	181.0	188.0
146	727.0	549.0
147	26.0	332.0
148	221.0	419.0
149	17.0	212.0
150	59.0	359.0
151	798.0	525.0
152	714.0	613.0
153	91.0	419.0
154	229.0	353.0
155	875.0	568.0
156	241.0	285.0
157	236.0	368.0
158	45.0	86.0
159	446.0	310.0
160	128.0	366.0
161	163.0	168.0
162	322.0	272.0
163	958.0	864.0
164	754.0	814.0
165	136.0	184.0
166	111.0	119.0
167	120.0	300.0
168	686.0	372.0
169	32.0	68.0
170	224.0	70.0
171	113.0	76.0
172	228.0	73.0
173	216.0	34.0
174	218.0	360.0
175	157.0	167.0
176	58.0	242.0
177	84.0	263.0
178	330.0	253.0
179	903.0	822.0
180	900.0	858.0
181	270.0	381.0
182	15.0	37.0
183	79.0	523.0
184	207.0	329.0
185	130.0	274.0
186	870.0	860.0
187	791.0	305.0
188	13.0	535.0
189	800.0	823.0
190	224.0	244.0
191	580.0	504.0
192	88.0	389.0
193	3.0	172.0
194	62.0	499.0
195	791.0	692.0
196	186.0	373.0
197	300.0	26.0
198	52.0	204.0
199	163.0	305.0
200	135.0	270.0
DEMAND_SECTION
1	0
2	83
3	52
4	73
5	70
6	86
7	51
8	74
9	84
10	52
11	93
12	91
13	89
14	64
15	75
16	64
17	61
18	2
19	86
20	95
21	100
22	73
23	61
24	83
25	60
26	85
27	48
28	66
29	70
30	91
31	54
32	55
33	64
34	56
35	62
36	89
37	100
38	96
39	67
40	21
41	15
42	55
43	58
44	84
45	85
46	91
47	55
48	79
49	79
50	82
51	91
52	89
53	22
54	31
55	85
56	22
57	72
58	59
59	95
60	99
61	98
62	54
63	96
64	69
65	97
66	67
67	80
68	65
69	86
70	90
71	72
72	69
73	80
74	72
75	62
76	78
77	24
78	88
79	70
80	71
81	76
82	93
83	64
84	80
85	91
86	75
87	81
88	79
89	71
90	51
91	65
92	68
93	39
94	69
95	55
96	100
97	98
98	87
99	55
100	79
101	68
102	99
103	52
104	99
105	85
106	77
107	51
108	55
109	54
110	70
111	88
112	9
113	91
114	65
115	67
116	93
117	70
118	73
119	98
120	64
121	68
122	100
123	66
124	8
125	98
126	15
127	71
128	92
129	72
130	76
131	76
132	93
133	97
134	79
135	99
136	58
137	84
138	82
139	86
140	77
141	75
142	59
143	24
144	69
145	95
146	83
147	53
148	56
149	57
150	67
151	62
152	62
153	91
154	60
155	71
156	68
157	84
158	64
159	71
160	82
161	59
162	72
163	95
164	63
165	94
166	92
167	98
168	14
169	85
170	52
171	85
172	96
173	62
174	76
175	72
176	94
177	52
178	51
179	54
180	96
181	96
182	82
183	10
184	54
185	82
186	58
187	28
188	37
189	90
190	91
191	95
192	89
193	88
194	100
195	87
196	66
197	88
198	74
199	70
200	80
DEPOT_SECTION
1
-1
EOF
