experiment/data/hgs-res/Vrp-Set-X-n200/Vrp-Set-X-n200-hgs/0.hgs1.tour
Route #1: 157 168 2 107 192 148
Route #2: 108 86 139 165 124
Route #3: 47 60 126 99 117
Route #4: 102 170 133 81 69
Route #5: 61 181 138 100 16 6
Route #6: 171 169 119 59 23
Route #7: 110 75 49 172 196
Route #8: 178 84 11 162 79
Route #9: 10 20 12 32 31
Route #10: 45 113 48 58 63
Route #11: 28 179 185 77 5
Route #12: 18 121 154 78 125 40
Route #13: 74 70 188 163 46 57
Route #14: 27 85 106 88 65 150
Route #15: 151 62 67 68 194
Route #16: 76 4 129 109 142 26 92
Route #17: 186 167 190 72 145 14 17 55
Route #18: 53 123 182 193 87 134 140
Route #19: 52 39 187 7 38 19 43
Route #20: 158 94 130 147 97 98
Route #21: 120 73 156 180 83
Route #22: 153 173 54 195 115 111
Route #23: 152 131 89 103 82
Route #24: 101 42 191 132 135
Route #25: 183 159 24 41 66 198
Route #26: 105 35 50 155 161
Route #27: 25 114 122 146 30 149
Route #28: 93 8 166 184 13
Route #29: 177 3 104 95 189
Route #30: 33 22 51 15 71 34
Route #31: 127 56 37 128 116
Route #32: 36 197 175 176 199
Route #33: 96 137 143 141 164
Route #34: 118 29 9 91 136
Route #35: 144 21 64 174 160
Route #36: 80 44 1 90 112
Cost 58635.6
